SOE/ProgAlap1/2021_10_21_pdoc_type_hinting_mypy_json/sor.txt
Soproni
Borsodi
Soproni
Soproni
Dreher
Gosser
Dreher
Kobanyai
Soproni Buza
Soproni Demon
